<?xml version="1.0"?>
<xrdMeasurements xmlns="http://www.xrdml.com/XRDMeasurement/2.2" xmlns:xsi="http://www.w3.org/2001/XMLSchema-instance" xsi:schemaLocation="http://www.xrdml.com/XRDMeasurement/2.2 http://www.xrdml.com/XRDMeasurement/2.2/XRDMeasurement.xsd" status="Completed" recordIdentifier="{4D4BB3DD-9171-4A74-ADA1-3035B1A44FD6}">
	<comment>
		<entry>Configuration=5-axes Cradle, Owner=User, Creation date=6/23/2022 3:31:49 PM</entry>
		<entry>Goniometer=Theta/Theta; Minimum step size 2Theta:0.0001; Minimum step size Omega:0.0001</entry>
		<entry>Sample stage=Chi-Phi-x-y-z stage 240 mm; Minimum step size Phi:0.01; Minimum step size Chi:0.01; Minimum step size X:0.01; Minimum step size Y:0.01; Minimum step size Z:0.001</entry>
		<entry>Diffractometer system=EMPYREAN</entry>
		<entry>Measurement program=C:\PANalytical\Data Collector\Programs\yeniru\General\general.xrdmp, Created identifier={D0A09B93-EA49-4B98-8C63-46F394C8D3D2}, Created by=User, Id=WL:DESKTOP-D3O2TFA:User, Creation date=6/26/2023 1:50:19 PM, Modified identifier={9097C53B-DC2A-46C9-9AD0-1752DCD494B3}, Modified by=User, Id=WL:DESKTOP-D3O2TFA:User, Modification date=3/26/2024 3:40:56 PM</entry>
		<entry>Fine Calibration Offset for 2Theta = -0.0055 deg</entry>
	</comment>
	<sample type="To be analyzed">
		<id></id>
		<name></name>
		<preparedBy></preparedBy>
	</sample>
	<xrdMeasurement measurementType="Scan" status="Completed" sampleMode="Reflection">
		<comment>
			<entry>PHD Lower Level = 4.02 (keV), PHD Upper Level = 11.27 (keV)</entry>
		</comment>
		<usedWavelength intended="K-Alpha 1">
			<kAlpha1 unit="Angstrom">1.5405980</kAlpha1>
			<kAlpha2 unit="Angstrom">1.5444260</kAlpha2>
			<kBeta unit="Angstrom">1.3922500</kBeta>
			<ratioKAlpha2KAlpha1>0.5000</ratioKAlpha2KAlpha1>
		</usedWavelength>
		<incidentBeamPath>
			<radius unit="mm">240.00</radius>
			<xRayTube id="1010048" name="Empyrean Cu LFF HR (9430 033 7310x) DK435371">
				<tension unit="kV">45.0</tension>
				<current unit="mA">40.0</current>
				<anodeMaterial>Cu</anodeMaterial>
				<focus type="Line">
					<length unit="mm">12.0</length>
					<width unit="mm">0.4</width>
					<takeOffAngle unit="deg">7.6</takeOffAngle>
				</focus>
			</xRayTube>
			<xRayMirror id="27020009" name="Bragg-Brentano HD Cu" hybrid="false">
				<crystal type="Graded" shape="Flat">BB/HD</crystal>
				<acceptanceAngle unit="deg">0.800</acceptanceAngle>
				<length unit="mm">55.3</length>
			</xRayMirror>
			<sollerSlit id="21010010" name="BBHD Soller slits 0.03 rad.">
				<opening unit="rad">0.0300</opening>
			</sollerSlit>
			<mask id="22220007" name="Mask 14.0 mm">
				<distanceToSample unit="mm">171.50</distanceToSample>
				<width unit="mm">14.00</width>
			</mask>
			<mask id="22220005" name="Mask 2.0 mm">
				<distanceToSample unit="mm">111.00</distanceToSample>
				<width unit="mm">2.00</width>
			</mask>
			<divergenceSlit id="22010028" name="PDS for iCore" xsi:type="fixedDivergenceSlitType">
				<distanceToSample unit="mm">95.50</distanceToSample>
				<angle unit="deg">0.0625</angle>
			</divergenceSlit>
		</incidentBeamPath>
		<sampleOffset>
			<position axis="2Theta" unit="deg">0.0000</position>
			<position axis="Omega" unit="deg">0.7959</position>
		</sampleOffset>
		<diffractedBeamPath>
			<radius unit="mm">240.00</radius>
			<antiScatterSlit id="22060010" name="PASS for dCore" xsi:type="fixedAntiScatterSlitType">
				<angle unit="deg">0.0625</angle>
			</antiScatterSlit>
			<sollerSlit id="21030002" name="dCore Soller slits 0.04 rad.">
				<opening unit="rad">0.0400</opening>
			</sollerSlit>
			<detector id="7010020" name="PIXcel3D-Medipix3 1x1 detector" xsi:type="areaDetectorType">
				<phd unit="%">
					<lowerLevel>25.0</lowerLevel>
					<upperLevel>70.0</upperLevel>
				</phd>
				<mode>Scanning</mode>
				<activeChannelsEquatorial>255</activeChannelsEquatorial>
				<activeChannelsAxial>255</activeChannelsAxial>
				<pitchEquatorial unit="mm">0.05500</pitchEquatorial>
				<pitchAxial unit="mm">0.05500</pitchAxial>
				<readOutPeriod unit="seconds">0.097</readOutPeriod>
			</detector>
		</diffractedBeamPath>
		<scan appendNumber="0" mode="Continuous" scanAxis="Gonio" status="Completed">
			<header>
				<startTimeStamp>2024-03-26T15:41:50+08:00</startTimeStamp>
				<endTimeStamp>2024-03-26T15:52:29+08:00</endTimeStamp>
				<author>
					<name>User</name>
				</author>
				<source>
					<applicationSoftware version="7.2b">Data Collector</applicationSoftware>
					<instrumentControlSoftware version="8.3  20230607">EMPYREAN</instrumentControlSoftware>
					<instrumentID>0000000011270433</instrumentID>
				</source>
			</header>
			<dataPoints>
				<positions axis="2Theta" unit="deg">
					<startPosition>10.02343028</startPosition>
					<endPosition>89.98685178</endPosition>
				</positions>
				<positions axis="Omega" unit="deg">
					<startPosition>5.01171514</startPosition>
					<endPosition>44.99342589</endPosition>
				</positions>
				<positions axis="Phi" unit="deg">
					<commonPosition>0.00</commonPosition>
				</positions>
				<positions axis="Chi" unit="deg">
					<commonPosition>0.00</commonPosition>
				</positions>
				<positions axis="X" unit="mm">
					<commonPosition>0.00</commonPosition>
				</positions>
				<positions axis="Y" unit="mm">
					<commonPosition>0.00</commonPosition>
				</positions>
				<positions axis="Z" unit="mm">
					<commonPosition>3.749</commonPosition>
				</positions>
				<commonCountingTime unit="seconds">46.665</commonCountingTime>
				<counts unit="counts">51 49 51 52 57 53 53 49 59 51 48 58 52 57 53 49 53 47 48 45 40 44 45 50 51 49 62 51 46 49 57 47 53 52 44 52 43 49 45 38 47 33 44 45 51 46 47 47 52 59 51 45 54 54 37 74 44 49 38 40 36 41 49 45 38 42 38 45 42 42 41 42 61 53 54 47 54 40 51 39 45 42 35 51 50 35 43 45 50 53 53 42 38 36 47 44 21 39 48 44 39 47 38 48 38 35 45 41 35 38 35 42 50 32 41 37 37 52 47 28 43 33 31 40 38 22 28 48 38 45 46 37 41 33 45 39 31 48 32 55 36 38 37 28 33 38 43 51 47 44 36 45 36 48 47 35 39 26 42 36 30 29 35 28 40 31 42 30 44 30 34 51 35 39 30 49 35 43 39 35 32 36 39 50 48 32 37 39 38 44 42 31 29 26 48 29 43 30 19 34 41 36 36 41 37 20 42 34 23 33 33 22 33 36 32 25 24 31 30 35 26 25 32 25 31 29 32 38 32 40 29 28 27 27 25 41 40 26 20 21 27 51 30 29 21 33 25 25 36 29 29 31 24 32 20 31 40 34 31 29 28 23 39 27 24 26 31 30 28 27 34 25 26 27 32 35 26 21 20 15 22 15 20 26 24 32 33 38 27 29 29 30 31 24 25 28 21 24 39 19 25 23 20 25 24 33 20 23 17 25 18 26 39 37 17 25 31 27 15 16 27 17 17 25 28 26 28 30 17 24 25 24 30 28 27 26 23 26 25 27 31 20 20 25 26 23 18 19 19 28 21 23 20 20 26 18 19 13 30 20 24 16 33 25 27 29 25 27 25 20 27 20 30 17 26 23 25 23 18 25 28 23 25 24 19 27 30 25 18 28 21 24 24 30 29 28 26 18 25 18 17 17 27 33 11 21 22 17 17 20 21 19 24 15 23 14 18 15 21 21 26 13 17 22 19 16 14 19 29 23 14 17 18 14 20 25 21 16 17 25 20 14 16 25 25 13 14 19 22 30 29 23 14 17 9 19 23 15 23 19 22 12 24 11 14 16 16 16 27 19 20 26 16 18 21 16 15 23 17 21 16 20 11 20 20 18 24 12 19 12 5 20 15 17 19 20 13 21 17 15 28 15 21 21 22 16 17 20 11 13 21 21 15 21 15 20 15 21 17 15 18 13 16 19 12 16 15 15 13 10 16 21 23 24 23 16 16 14 16 10 14 18 11 20 14 28 22 20 16 20 11 16 6 14 15 20 21 13 17 10 15 9 16 9 15 14 17 12 12 20 23 20 15 21 18 11 15 24 11 13 17 11 14 11 16 20 25 12 20 14 14 14 15 18 15 15 10 14 17 17 18 15 15 14 17 4 10 15 20 18 10 9 19 12 7 11 10 12 14 18 19 20 10 20 13 11 18 13 11 18 19 15 14 12 19 7 15 18 18 22 18 16 10 14 14 14 13 15 18 21 12 18 11 15 20 11 24 10 26 9 11 13 9 9 19 10 10 23 16 12 14 16 15 9 12 14 16 17 23 13 20 17 25 24 21 15 32 31 15 30 34 41 52 81 139 223 367 535 1011 2190 4220 4593 2251 2535 1896 466 134 95 58 36 41 34 33 31 23 27 35 23 23 21 24 29 24 25 20 16 15 12 10 20 13 15 19 19 19 17 13 14 15 11 18 17 15 14 10 15 19 16 22 12 12 6 15 9 10 10 11 9 2 15 8 18 10 9 15 8 12 16 14 10 8 12 13 6 8 12 12 12 19 16 8 12 8 11 6 11 11 10 6 11 10 9 14 14 13 7 12 8 10 11 14 6 8 15 8 11 5 10 13 6 12 10 13 15 17 10 13 4 9 7 17 8 20 15 10 9 11 12 11 6 14 12 4 8 12 11 10 8 8 9 8 16 13 7 7 7 7 8 7 12 10 8 6 7 13 9 8 11 8 10 2 7 8 14 12 8 12 12 12 15 7 8 6 8 9 6 8 5 4 11 12 11 7 10 14 7 10 9 7 12 12 8 15 9 12 7 12 10 7 14 13 3 10 14 14 11 6 14 9 14 6 5 6 12 12 8 4 8 8 12 14 10 5 9 8 8 6 11 8 15 3 2 14 8 8 22 12 10 6 8 5 9 5 10 14 11 7 5 10 10 12 9 9 10 7 10 11 9 16 19 11 9 9 6 9 15 5 12 12 14 14 4 13 12 13 7 15 15 11 11 14 12 11 7 2 11 8 8 11 4 4 4 9 12 6 6 10 6 11 11 7 13 9 7 12 11 12 10 6 5 4 7 11 9 5 7 9 11 10 7 10 6 7 9 6 9 12 10 12 2 5 8 8 6 9 9 9 13 6 10 5 13 3 11 4 19 12 14 11 5 11 9 11 4 14 9 10 16 8 15 5 13 12 10 11 9 15 13 12 16 12 27 19 21 29 33 57 64 105 175 334 639 915 780 424 459 532 348 140 69 47 34 23 23 14 12 20 18 14 12 9 16 14 13 17 14 13 16 5 10 8 10 14 14 12 15 9 12 4 5 6 10 7 9 5 5 10 9 9 13 12 7 4 9 8 17 12 4 8 11 6 6 13 10 7 11 8 4 11 9 9 11 7 9 12 7 15 6 11 13 7 11 4 3 11 11 8 13 5 8 7 12 11 7 15 10 8 11 8 9 13 10 9 9 11 10 7 8 8 11 9 8 11 8 14 3 14 13 5 11 8 6 7 15 5 10 13 1 12 14 15 10 11 9 12 10 12 12 16 15 14 19 9 11 10 5 9 6 8 10 10 3 9 20 8 11 12 14 2 1 6 7 14 14 7 12 13 5 12 6 7 6 9 10 10 9 6 11 8 7 15 8 13 14 14 10 9 4 12 15 11 6 13 11 8 9 7 7 12 12 12 13 14 3 7 7 10 17 10 9 12 13 18 14 15 16 19 8 11 17 18 23 16 18 15 18 31 24 43 44 55 81 84 78 118 174 275 517 953 1734 2274 1835 1073 940 1247 1098 628 253 168 96 56 54 27 43 41 27 31 21 12 20 22 21 25 24 18 16 16 9 11 20 18 9 12 15 11 15 17 9 17 6 5 16 14 8 8 15 13 14 9 11 7 15 2 0 13 6 8 6 13 4 7 10 8 13 7 6 13 5 13 4 7 7 10 1 13 20 5 11 6 14 6 7 14 6 8 9 14 10 13 10 6 5 5 14 20 25 33 48 140 171 103 47 59 76 65 40 17 11 9 7 14 7 12 8 10 10 6 6 10 6 5 8 3 11 8 8 4 6 3 9 3 6 8 6 7 14 7 3 8 7 10 9 6 9 10 10 4 11 11 7 5 4 3 2 10 6 1 9 13 4 9 9 10 7 4 5 6 8 6 9 6 5 15 4 5 4 10 10 6 4 6 9 7 7 5 1 9 4 9 2 10 7 9 4 6 1 2 3 3 2 4 3 9 7 1 6 3 2 4 4 6 8 4 8 6 2 10 8 1 6 7 9 3 6 8 5 19 3 1 2 4 9 3 5 9 1 9 4 7 8 12 9 3 9 5 8 1 6 6 8 1 5 2 4 11 3 7 5 5 9 7 7 6 6 6 7 5 4 4 6 5 5 5 3 6 3 6 2 4 2 4 4 11 6 2 9 6 3 11 3 6 7 3 10 8 8 13 2 8 4 2 5 8 4 7 12 5 3 5 8 8 7 4 7 0 18 3 2 7 3 8 2 2 5 6 6 6 7 8 9 5 5 6 5 5 5 5 4 0 13 13 6 9 8 3 6 6 10 8 9 4 7 8 5 7 5 3 1 6 2 2 3 2 5 4 6 2 3 5 6 5 3 2 4 5 3 9 5 4 10 11 2 2 2 1 5 7 7 8 6 2 4 4 6 4 4 7 2 4 10 7 5 7 5 6 3 5 4 7 6 9 11 3 2 6 11 8 12 3 5 5 8 9 4 10 12 5 5 4 7 10 14 23 20 75 80 50 19 23 27 35 45 26 13 6 7 8 6 3 4 2 3 7 10 5 0 4 4 6 7 9 6 5 3 1 2 6 1 7 4 10 2 6 2 7 9 7 7 4 8 5 1 6 2 7 5 5 4 2 2 4 5 1 4 5 8 4 3 4 3 3 3 7 6 6 3 2 3 4 5 4 8 9 8 2 3 3 5 6 8 5 6 6 7 2 5 2 6 2 2 8 4 2 5 0 11 6 5 7 11 3 3 10 9 7 3 3 5 4 5 6 3 4 3 3 7 1 4 3 8 6 3 2 7 9 5 3 3 6 7 4 4 6 4 5 8 2 8 2 7 2 5 5 4 6 4 4 2 3 7 6 5 7 3 4 5 2 6 2 6 9 2 9 0 6 8 4 4 3 1 5 8 6 4 4 3 0 6 4 3 1 0 5 7 3 4 5 5 10 4 6 7 5 2 8 6 3 0 1 12 5 4 8 8 1 4 3 1 6 6 12 4 5 6 15 2 4 7 4 7 1 3 7 3 3 4 2 0 7 8 7 3 4 4 5 9 6 5 8 2 10 10 4 4 7 4 8 7 7 10 6 5 6 5 7 2 7 6 6 4 3 4 4 7 4 4 6 3 5 1 2 4 5 7 3 4 6 4 4 3 9 3 5 5 8 7 8 5 4 9 8 7 5 8 6 3 4 6 8 6 7 3 3 7 3 6 7 8 6 6 5 9 8 13 6 8 10 3 10 10 10 11 17 12 17 19 20 18 20 22 38 51 103 161 266 370 461 327 231 127 137 167 211 252 192 104 47 28 20 23 25 19 16 19 9 12 11 9 13 4 12 16 10 3 14 12 8 7 7 13 11 6 10 10 6 6 6 5 6 7 5 5 5 5 7 5 2 8 12 8 2 12 12 7 5 9 3 9 3 6 12 6 6 2 8 5 3 8 8 5 5 8 7 7 6 3 6 9 6 9 1 6 7 9 7 3 2 2 4 4 6 8 10 8 3 9 6 5 5 6 6 9 7 6 6 9 4 9 3 6 6 11 3 10 7 5 2 8 1 6 3 3 14 8 6 10 7 3 8 10 10 6 8 10 7 6 2 11 3 5 9 3 10 0 9 9 12 4 13 8 12 12 10 9 9 11 12 6 12 8 10 3 8 7 7 7 3 6 3 4 7 8 1 8 5 5 7 3 6 7 9 3 5 5 8 6 3 5 4 5 4 2 2 5 3 3 9 5 2 3 7 6 5 9 4 5 3 6 7 6 3 3 4 5 4 4 7 1 5 4 1 8 5 6 5 8 8 9 4 1 7 8 3 6 0 10 6 4 9 4 5 12 5 12 13 6 5 4 5 4 6 9 4 11 7 5 3 13 2 9 1 5 5 8 6 6 2 3 4 7 6 5 8 11 5 3 3 8 4 9 8 3 4 5 12 0 6 2 5 7 1 2 5 7 8 5 8 6 4 6 8 3 2 9 7 6 4 8 4 7 8 3 7 6 16 3 1 6 4 4 4 5 4 3 6 5 10 6 4 10 4 1 9 3 11 11 7 4 9 4 3 3 4 8 4 6 10 0 6 1 7 5 9 6 5 5 9 5 8 4 3 5 6 9 11 8 8 7 9 10 8 10 6 10 7 3 5 8 7 7 6 7 4 6 3 5 6 6 6 7 3 4 5 10 4 7 4 5 5 7 10 9 5 4 5 8 7 2 2 2 3 6 3 6 7 10 4 11 8 9 9 13 15 21 23 58 55 48 23 16 11 6 14 29 34 41 25 15 18 7 9 9 7 12 11 13 6 12 8 9 7 18 8 11 6 8 7 10 10 19 11 8 13 6 13 8 10 3 16 16 12 12 12 11 15 7 7 16 14 18 27 21 21 27 27 23 40 47 67 70 106 133 200 339 598 838 881 652 437 288 202 193 245 345 440 444 347 239 143 88 58 47 43 34 30 16 23 22 23 18 14 18 14 16 16 13 11 8 16 16 19 9 7 5 12 5 8 8 12 18 2 14 5 13 8 11 10 14 8 14 10 9 4 10 11 11 9 9 10 8 11 9 15 3 10 3 10 4 6 6 6 14 9 7 6 6 7 5 5 10 1 8 4 14 12 12 8 6 4 9 3 4 3 8 6 8 2 3 9 5 4 4 7 1 4 7 5 6 11 7 7 6 3 2 6 6 11 5 9 9 5 8 8 5 5 7 10 4 1 2 6 8 6 12 3 7 5 2 14 4 4 2 5 5 7 3 7 9 3 15 12 13 16 20 28 36 54 47 28 18 20 18 21 24 30 21 13 27 19 6 13 10 8 5 7 4 6 5 6 1 5 8 6 3 9 4 2 6 4 7 7 3 7 2 6 5 11 4 11 3 5 8 6 9 9 7 2 3 2 5 4 5 3 7 5 3 3 3 5 5 5 2 4 5 4 3 3 4 3 3 8 10 1 2 1 5 6 6 2 6 6 4 4 3 9 3 4 5 9 5 7 11 2 9 7 5 8 5 8 3 8 15 5 2 7 0 2 7 4 4 6 5 3 3 5 9 4 4 4 8 8 6 4 6 4 6 5 2 5 2 6 7 7 4 5 6 0 6 2 6 5 7 7 4 7 11 7 0 13 13 8 5 7 4 4 3 2 3 3 3 7 4 2 2 7 1 4 6 7 1 9 9 5 5 3 7 12 1 5 5 5 3 5 2 2 2 3 6 7 3 8 6 4 7 2 6 4 8 3 7 7 6 10 9 9 19 18 26 47 68 90 65 39 19 16 19 17 16 33 41 43 49 25 20 14 10 4 10 7 3 9 1 3 3 7 3 8 9 4 10 12 4 9 5 6 5 7 5 5 2 4 6 4 2 7 1 7 4 2 8 5 2 4 6 9 5 3 5 9 7 6 6 3 2 3 6 6 9 8 5 9 7 5 7 3 4</counts>
			</dataPoints>
		</scan>
	</xrdMeasurement>
</xrdMeasurements>
